(set-logic LIA)

(synth-inv inv-f ((conf_0 Int) (lock Int) (x Int) (y Int) (tmp Int) (conf_0_0 Int) (conf_0_1 Int) (conf_0_2 Int) (conf_0_3 Int) (conf_0_4 Int) (conf_0_5 Int) (conf_0_6 Int) (conf_0_7 Int) (lock_0 Int) (lock_1 Int) (lock_2 Int) (lock_3 Int) (lock_4 Int) (lock_5 Int) (x_0 Int) (x_1 Int) (x_2 Int) (x_3 Int) (x_4 Int) (y_0 Int) (y_1 Int) (y_2 Int) (y_3 Int) (y_4 Int)))

(define-fun pre-f ((conf_0 Int) (lock Int) (x Int) (y Int) (tmp Int) (conf_0_0 Int) (conf_0_1 Int) (conf_0_2 Int) (conf_0_3 Int) (conf_0_4 Int) (conf_0_5 Int) (conf_0_6 Int) (conf_0_7 Int) (lock_0 Int) (lock_1 Int) (lock_2 Int) (lock_3 Int) (lock_4 Int) (lock_5 Int) (x_0 Int) (x_1 Int) (x_2 Int) (x_3 Int) (x_4 Int) (y_0 Int) (y_1 Int) (y_2 Int) (y_3 Int) (y_4 Int)) Bool
    (and (= conf_0 conf_0_0) (= lock lock_1) (= x x_0) (= y y_1) (= conf_0_0 9) (= y_1 (+ x_0 1)) (= lock_1 0)))
(define-fun trans-f ((conf_0 Int) (lock Int) (x Int) (y Int) (tmp Int) (conf_0_0 Int) (conf_0_1 Int) (conf_0_2 Int) (conf_0_3 Int) (conf_0_4 Int) (conf_0_5 Int) (conf_0_6 Int) (conf_0_7 Int) (lock_0 Int) (lock_1 Int) (lock_2 Int) (lock_3 Int) (lock_4 Int) (lock_5 Int) (x_0 Int) (x_1 Int) (x_2 Int) (x_3 Int) (x_4 Int) (y_0 Int) (y_1 Int) (y_2 Int) (y_3 Int) (y_4 Int) (conf_0! Int) (lock! Int) (x! Int) (y! Int) (tmp! Int) (conf_0_0! Int) (conf_0_1! Int) (conf_0_2! Int) (conf_0_3! Int) (conf_0_4! Int) (conf_0_5! Int) (conf_0_6! Int) (conf_0_7! Int) (lock_0! Int) (lock_1! Int) (lock_2! Int) (lock_3! Int) (lock_4! Int) (lock_5! Int) (x_0! Int) (x_1! Int) (x_2! Int) (x_3! Int) (x_4! Int) (y_0! Int) (y_1! Int) (y_2! Int) (y_3! Int) (y_4! Int)) Bool
    (or (and (= conf_0_1 conf_0) (= lock_2 lock) (= x_1 x) (= y_2 y) (= conf_0_1 conf_0!) (= lock_2 lock!) (= x_1 x!) (= y_2 y!) (= conf_0 conf_0!) (= lock lock!) (= tmp tmp!)) (and (= conf_0_1 conf_0) (= lock_2 lock) (= x_1 x) (= y_2 y) (not (= x_1 y_2)) (= lock_3 1) (= conf_0_2 conf_0_1) (= x_2 y_2) (= conf_0_3 (+ conf_0_2 conf_0_2)) (= conf_0_4 conf_0_3) (= lock_4 lock_3) (= x_3 x_2) (= y_3 y_2) (= conf_0_4 conf_0!) (= lock_4 lock!) (= x_3 x!) (= y_3 y!) (= tmp tmp!)) (and (= conf_0_1 conf_0) (= lock_2 lock) (= x_1 x) (= y_2 y) (not (= x_1 y_2)) (= lock_5 0) (= conf_0_5 (- conf_0_1 conf_0_1)) (= x_4 y_2) (= conf_0_6 (+ 310 561)) (= y_4 (+ y_2 1)) (= conf_0_7 184) (= conf_0_4 conf_0_7) (= lock_4 lock_5) (= x_3 x_4) (= y_3 y_4) (= conf_0_4 conf_0!) (= lock_4 lock!) (= x_3 x!) (= y_3 y!) (= tmp tmp!))))
(define-fun post-f ((conf_0 Int) (lock Int) (x Int) (y Int) (tmp Int) (conf_0_0 Int) (conf_0_1 Int) (conf_0_2 Int) (conf_0_3 Int) (conf_0_4 Int) (conf_0_5 Int) (conf_0_6 Int) (conf_0_7 Int) (lock_0 Int) (lock_1 Int) (lock_2 Int) (lock_3 Int) (lock_4 Int) (lock_5 Int) (x_0 Int) (x_1 Int) (x_2 Int) (x_3 Int) (x_4 Int) (y_0 Int) (y_1 Int) (y_2 Int) (y_3 Int) (y_4 Int)) Bool
    (or (not (and (= conf_0 conf_0_1) (= lock lock_2) (= x x_1) (= y y_2))) (not (and (not (not (= x_1 y_2))) (not (= lock_2 1))))))

(inv-constraint inv-f pre-f trans-f post-f)

(check-synth)

